(set-info :source |printed by MathSAT|)
(declare-fun |.x{2093}| () Int)
(declare-fun |.x{2155}| () Int)
(declare-fun |.x{2094}| () (Array Int Int))
(declare-fun |.x{2156}| () (Array Int Int))
(declare-fun |.x{2095}| () (Array Int Int))
(declare-fun |.x{2157}| () (Array Int Int))
(declare-fun |.x{2096}| () (Array Int (Array Int Int)))
(declare-fun |.x{2158}| () (Array Int (Array Int Int)))
(declare-fun |.x{2097}| () (Array Int (Array Int Int)))
(declare-fun |.x{2159}| () (Array Int (Array Int Int)))
(declare-fun |.x{2098}| () Int)
(declare-fun |.x{2160}| () Int)
(declare-fun |.x{2099}| () Int)
(declare-fun |.x{2161}| () Int)
(declare-fun |.x{2100}| () (Array Int Int))
(declare-fun |.x{2162}| () (Array Int Int))
(declare-fun |.x{2101}| () (Array Int Int))
(declare-fun |.x{2163}| () (Array Int Int))
(declare-fun |.x{2102}| () Int)
(declare-fun |.x{2164}| () Int)
(declare-fun |.x{2103}| () Int)
(declare-fun |.x{2165}| () Int)
(declare-fun |.x{2104}| () Int)
(declare-fun |.x{2166}| () Int)
(declare-fun |.x{2105}| () Int)
(declare-fun |.x{2167}| () Int)
(declare-fun |.x{2106}| () Int)
(declare-fun |.x{2168}| () Int)
(declare-fun |.x{2107}| () Int)
(declare-fun |.x{2169}| () Int)
(declare-fun |.x{2108}| () Int)
(declare-fun |.x{2170}| () Int)
(declare-fun |.x{2109}| () Int)
(declare-fun |.x{2171}| () Int)
(declare-fun |.x{2110}| () Int)
(declare-fun |.x{2172}| () Int)
(declare-fun |.x{2111}| () Int)
(declare-fun |.x{2173}| () Int)
(declare-fun |.x{2112}| () Int)
(declare-fun |.x{2174}| () Int)
(declare-fun |.x{2113}| () Int)
(declare-fun |.x{2175}| () Int)
(declare-fun |.x{2114}| () (Array Int Int))
(declare-fun |.x{2176}| () (Array Int Int))
(declare-fun |.x{2115}| () Int)
(declare-fun |.x{2177}| () Int)
(declare-fun |.x{2116}| () Int)
(declare-fun |.x{2178}| () Int)
(declare-fun |.x{2117}| () Int)
(declare-fun |.x{2179}| () Int)
(declare-fun |.x{2118}| () Int)
(declare-fun |.x{2180}| () Int)
(declare-fun |.x{2119}| () Int)
(declare-fun |.x{2181}| () Int)
(declare-fun |.x{2120}| () Int)
(declare-fun |.x{2182}| () Int)
(declare-fun |.x{2121}| () Int)
(declare-fun |.x{2183}| () Int)
(declare-fun |.x{2122}| () Int)
(declare-fun |.x{2184}| () Int)
(declare-fun |.x{2154}| () Bool)
(declare-fun |.x{2123}| () Bool)
(declare-fun |.loc{5}| () Bool)
(declare-fun |.loc{9}| () Bool)
(declare-fun |.loc{6}| () Bool)
(declare-fun |.loc{10}| () Bool)
(declare-fun |.loc{7}| () Bool)
(declare-fun |.loc{11}| () Bool)
(declare-fun |.loc{8}| () Bool)
(declare-fun |.loc{12}| () Bool)
(declare-fun |.x{1233}| () Int)
(declare-fun |.x{123}| () (Array Int Int))
(define-fun .def_70 () Bool (! |.loc{5}| :next |.loc{9}|))
(define-fun .def_147 () Bool (not .def_70))
(define-fun .def_72 () Bool (! |.loc{6}| :next |.loc{10}|))
(define-fun .def_709 () Bool (and .def_72 .def_147))
(define-fun .def_74 () Bool (! |.loc{7}| :next |.loc{11}|))
(define-fun .def_262 () Bool (not .def_74))
(define-fun .def_710 () Bool (and .def_262 .def_709))
(define-fun .def_76 () Bool (! |.loc{8}| :next |.loc{12}|))
(define-fun .def_122 () Bool (not .def_76))
(define-fun .def_711 () Bool (and .def_122 .def_710))
(define-fun .def_68 () Bool (! |.x{2154}| :next |.x{2123}|))
(define-fun .def_703 () Bool (not .def_68))
(define-fun .def_16 () (Array Int (Array Int Int)) (! |.x{2097}| :next |.x{2159}|))
(define-fun .def_14 () (Array Int (Array Int Int)) (! |.x{2096}| :next |.x{2158}|))
(define-fun .def_702 () Bool (= .def_14 .def_16))
(define-fun .def_704 () Bool (and .def_702 .def_703))
(define-fun .def_28 () Int (! |.x{2103}| :next |.x{2165}|))
(define-fun .def_26 () Int (! |.x{2102}| :next |.x{2164}|))
(define-fun .def_701 () Bool (= .def_26 .def_28))
(define-fun .def_705 () Bool (and .def_701 .def_704))
(define-fun .def_20 () Int (! |.x{2099}| :next |.x{2161}|))
(define-fun .def_18 () Int (! |.x{2098}| :next |.x{2160}|))
(define-fun .def_700 () Bool (= .def_18 .def_20))
(define-fun .def_706 () Bool (and .def_700 .def_705))
(define-fun .def_24 () (Array Int Int) (! |.x{2101}| :next |.x{2163}|))
(define-fun .def_22 () (Array Int Int) (! |.x{2100}| :next |.x{2162}|))
(define-fun .def_699 () Bool (= .def_22 .def_24))
(define-fun .def_707 () Bool (and .def_699 .def_706))
(define-fun .def_12 () (Array Int Int) (! |.x{2095}| :next |.x{2157}|))
(define-fun .def_10 () (Array Int Int) (! |.x{2094}| :next |.x{2156}|))
(define-fun .def_698 () Bool (= .def_10 .def_12))
(define-fun .def_708 () Bool (and .def_698 .def_707))
(define-fun .def_712 () Bool (! (and .def_708 .def_711) :init true))
(define-fun .def_695 () Bool (= .def_28 |.x{2165}|))
(define-fun .def_693 () Bool (= .def_24 |.x{2163}|))
(define-fun .def_691 () Bool (= .def_20 |.x{2161}|))
(define-fun .def_689 () Bool (= .def_16 |.x{2159}|))
(define-fun .def_8 () Int (! |.x{2093}| :next |.x{2155}|))
(define-fun .def_687 () Bool (= .def_8 |.x{2155}|))
(define-fun .def_686 () Bool (= .def_12 |.x{2157}|))
(define-fun .def_688 () Bool (and .def_686 .def_687))
(define-fun .def_690 () Bool (and .def_688 .def_689))
(define-fun .def_692 () Bool (and .def_690 .def_691))
(define-fun .def_694 () Bool (and .def_692 .def_693))
(define-fun .def_696 () Bool (and .def_694 .def_695))
(define-fun .def_44 () Int (! |.x{2111}| :next |.x{2173}|))
(define-fun .def_91 () Bool (= .def_44 |.x{2173}|))
(define-fun .def_42 () Int (! |.x{2110}| :next |.x{2172}|))
(define-fun .def_89 () Bool (= .def_42 |.x{2172}|))
(define-fun .def_641 () Bool (and .def_89 .def_91))
(define-fun .def_48 () Int (! |.x{2113}| :next |.x{2175}|))
(define-fun .def_95 () Bool (= .def_48 |.x{2175}|))
(define-fun .def_642 () Bool (and .def_95 .def_641))
(define-fun .def_52 () Int (! |.x{2115}| :next |.x{2177}|))
(define-fun .def_112 () Bool (= .def_52 |.x{2177}|))
(define-fun .def_643 () Bool (and .def_112 .def_642))
(define-fun .def_118 () Bool (= .def_10 |.x{2156}|))
(define-fun .def_644 () Bool (and .def_118 .def_643))
(define-fun .def_645 () Bool (and |.x{2123}| .def_644))
(define-fun .def_30 () Int (! |.x{2104}| :next |.x{2166}|))
(define-fun .def_140 () Bool (= .def_30 |.x{2166}|))
(define-fun .def_646 () Bool (and .def_140 .def_645))
(define-fun .def_647 () Bool (and .def_147 .def_646))
(define-fun .def_36 () Int (! |.x{2107}| :next |.x{2169}|))
(define-fun .def_151 () Bool (= .def_36 |.x{2169}|))
(define-fun .def_648 () Bool (and .def_151 .def_647))
(define-fun .def_649 () Bool (and .def_151 .def_648))
(define-fun .def_637 () Bool (= |.x{2172}| |.x{2177}|))
(define-fun .def_638 () Bool (or |.x{2123}| .def_637))
(define-fun .def_633 () Bool (= |.x{2177}| 0))
(define-fun .def_630 () (Array Int Int) (store .def_10 .def_30 0))
(define-fun .def_631 () (Array Int Int) (store .def_630 .def_44 0))
(define-fun .def_632 () Bool (= |.x{2156}| .def_631))
(define-fun .def_634 () Bool (and .def_632 .def_633))
(define-fun .def_635 () Bool (or .def_68 .def_634))
(define-fun .def_636 () Bool (and .def_70 .def_635))
(define-fun .def_639 () Bool (and .def_636 .def_638))
(define-fun .def_149 () Bool (= .def_68 |.x{2123}|))
(define-fun .def_640 () Bool (and .def_149 .def_639))
(define-fun .def_650 () Bool (or .def_640 .def_649))
(define-fun .def_205 () Bool (not |.loc{10}|))
(define-fun .def_628 () Bool (and |.loc{11}| .def_205))
(define-fun .def_629 () Bool (and .def_72 .def_628))
(define-fun .def_651 () Bool (and .def_629 .def_650))
(define-fun .def_34 () Int (! |.x{2106}| :next |.x{2168}|))
(define-fun .def_446 () Bool (= .def_34 0))
(define-fun .def_618 () Bool (or .def_68 .def_446))
(define-fun .def_86 () Bool (not .def_72))
(define-fun .def_615 () Bool (and |.loc{10}| .def_86))
(define-fun .def_616 () Bool (and .def_89 .def_615))
(define-fun .def_617 () Bool (and .def_91 .def_616))
(define-fun .def_619 () Bool (and .def_617 .def_618))
(define-fun .def_620 () Bool (and .def_95 .def_619))
(define-fun .def_621 () Bool (and .def_112 .def_620))
(define-fun .def_622 () Bool (and .def_118 .def_621))
(define-fun .def_623 () Bool (and .def_140 .def_622))
(define-fun .def_624 () Bool (and .def_70 .def_623))
(define-fun .def_625 () Bool (and .def_149 .def_624))
(define-fun .def_626 () Bool (and .def_151 .def_625))
(define-fun .def_153 () Bool (not |.loc{11}|))
(define-fun .def_627 () Bool (and .def_153 .def_626))
(define-fun .def_652 () Bool (or .def_627 .def_651))
(define-fun .def_202 () Bool (not |.loc{9}|))
(define-fun .def_653 () Bool (and .def_202 .def_652))
(define-fun .def_60 () Int (! |.x{2119}| :next |.x{2181}|))
(define-fun .def_120 () Bool (= .def_60 |.x{2181}|))
(define-fun .def_654 () Bool (and .def_120 .def_653))
(define-fun .def_62 () Int (! |.x{2120}| :next |.x{2182}|))
(define-fun .def_124 () Bool (= .def_62 |.x{2182}|))
(define-fun .def_655 () Bool (and .def_124 .def_654))
(define-fun .def_145 () Bool (= .def_34 |.x{2168}|))
(define-fun .def_656 () Bool (and .def_145 .def_655))
(define-fun .def_657 () Bool (and .def_145 .def_656))
(define-fun .def_40 () Int (! |.x{2109}| :next |.x{2171}|))
(define-fun .def_600 () Int (* 4 .def_40))
(define-fun .def_601 () Int (+ .def_36 .def_600))
(define-fun .def_602 () (Array Int Int) (select .def_14 .def_44))
(define-fun .def_603 () Int (select .def_602 .def_601))
(define-fun .def_604 () Bool (= |.x{2182}| .def_603))
(define-fun .def_599 () Bool (= |.x{2168}| |.x{2181}|))
(define-fun .def_605 () Bool (and .def_599 .def_604))
(define-fun .def_596 () Bool (<= 0 |.x{2182}|))
(define-fun .def_597 () Int (ite .def_596 1 0))
(define-fun .def_598 () Bool (= |.x{2181}| .def_597))
(define-fun .def_606 () Bool (and .def_598 .def_605))
(define-fun .def_64 () Int (! |.x{2121}| :next |.x{2183}|))
(define-fun .def_515 () Bool (<= .def_64 .def_40))
(define-fun .def_595 () Bool (not .def_515))
(define-fun .def_607 () Bool (and .def_595 .def_606))
(define-fun .def_608 () Bool (or .def_68 .def_607))
(define-fun .def_588 () Bool (and |.loc{9}| .def_86))
(define-fun .def_589 () Bool (and .def_89 .def_588))
(define-fun .def_590 () Bool (and .def_205 .def_589))
(define-fun .def_591 () Bool (and .def_91 .def_590))
(define-fun .def_592 () Bool (and .def_95 .def_591))
(define-fun .def_593 () Bool (and .def_112 .def_592))
(define-fun .def_594 () Bool (and .def_118 .def_593))
(define-fun .def_609 () Bool (and .def_594 .def_608))
(define-fun .def_610 () Bool (and .def_140 .def_609))
(define-fun .def_611 () Bool (and .def_147 .def_610))
(define-fun .def_612 () Bool (and .def_149 .def_611))
(define-fun .def_613 () Bool (and .def_151 .def_612))
(define-fun .def_614 () Bool (and .def_153 .def_613))
(define-fun .def_658 () Bool (or .def_614 .def_657))
(define-fun .def_46 () Int (! |.x{2112}| :next |.x{2174}|))
(define-fun .def_93 () Bool (= .def_46 |.x{2174}|))
(define-fun .def_84 () Bool (= .def_40 |.x{2171}|))
(define-fun .def_587 () Bool (and .def_84 .def_93))
(define-fun .def_659 () Bool (and .def_587 .def_658))
(define-fun .def_660 () Bool (and .def_76 .def_659))
(define-fun .def_576 () Int (* (- 1) |.x{2171}|))
(define-fun .def_577 () Int (+ .def_40 .def_576))
(define-fun .def_578 () Bool (= .def_577 (- 1)))
(define-fun .def_579 () Bool (or |.x{2123}| .def_578))
(define-fun .def_567 () Bool (and .def_86 .def_202))
(define-fun .def_568 () Bool (and .def_89 .def_567))
(define-fun .def_569 () Bool (and .def_205 .def_568))
(define-fun .def_570 () Bool (and .def_91 .def_569))
(define-fun .def_571 () Bool (and .def_95 .def_570))
(define-fun .def_572 () Bool (and .def_112 .def_571))
(define-fun .def_573 () Bool (and .def_118 .def_572))
(define-fun .def_574 () Bool (and .def_120 .def_573))
(define-fun .def_575 () Bool (and .def_122 .def_574))
(define-fun .def_580 () Bool (and .def_575 .def_579))
(define-fun .def_581 () Bool (and .def_140 .def_580))
(define-fun .def_582 () Bool (and .def_145 .def_581))
(define-fun .def_583 () Bool (and .def_147 .def_582))
(define-fun .def_584 () Bool (and .def_149 .def_583))
(define-fun .def_585 () Bool (and .def_151 .def_584))
(define-fun .def_586 () Bool (and .def_153 .def_585))
(define-fun .def_661 () Bool (or .def_586 .def_660))
(define-fun .def_662 () Bool (and .def_262 .def_661))
(define-fun .def_556 () Bool (= |.x{2171}| 0))
(define-fun .def_557 () Bool (or .def_68 .def_556))
(define-fun .def_546 () Bool (and .def_89 .def_202))
(define-fun .def_547 () Bool (and .def_205 .def_546))
(define-fun .def_548 () Bool (and .def_91 .def_547))
(define-fun .def_549 () Bool (and .def_93 .def_548))
(define-fun .def_550 () Bool (and .def_95 .def_549))
(define-fun .def_551 () Bool (and .def_112 .def_550))
(define-fun .def_552 () Bool (and .def_118 .def_551))
(define-fun .def_553 () Bool (and .def_120 .def_552))
(define-fun .def_554 () Bool (and .def_122 .def_553))
(define-fun .def_555 () Bool (and .def_124 .def_554))
(define-fun .def_558 () Bool (and .def_555 .def_557))
(define-fun .def_559 () Bool (and .def_140 .def_558))
(define-fun .def_560 () Bool (and .def_70 .def_559))
(define-fun .def_561 () Bool (and .def_72 .def_560))
(define-fun .def_562 () Bool (and .def_74 .def_561))
(define-fun .def_563 () Bool (and .def_145 .def_562))
(define-fun .def_564 () Bool (and .def_149 .def_563))
(define-fun .def_565 () Bool (and .def_151 .def_564))
(define-fun .def_566 () Bool (and .def_153 .def_565))
(define-fun .def_663 () Bool (or .def_566 .def_662))
(define-fun .def_83 () Bool (and |.loc{9}| |.loc{10}|))
(define-fun .def_85 () Bool (and .def_83 .def_84))
(define-fun .def_87 () Bool (and .def_85 .def_86))
(define-fun .def_157 () Bool (and .def_87 .def_89))
(define-fun .def_158 () Bool (and .def_91 .def_157))
(define-fun .def_159 () Bool (and .def_93 .def_158))
(define-fun .def_160 () Bool (and .def_95 .def_159))
(define-fun .def_533 () Bool (and .def_112 .def_160))
(define-fun .def_534 () Bool (and .def_68 .def_533))
(define-fun .def_535 () Bool (and .def_118 .def_534))
(define-fun .def_536 () Bool (and .def_120 .def_535))
(define-fun .def_537 () Bool (and .def_124 .def_536))
(define-fun .def_538 () Bool (and .def_140 .def_537))
(define-fun .def_539 () Bool (and .def_76 .def_538))
(define-fun .def_540 () Bool (and .def_145 .def_539))
(define-fun .def_541 () Bool (and .def_147 .def_540))
(define-fun .def_542 () Bool (and .def_149 .def_541))
(define-fun .def_543 () Bool (and .def_262 .def_542))
(define-fun .def_544 () Bool (and .def_151 .def_543))
(define-fun .def_545 () Bool (and .def_153 .def_544))
(define-fun .def_664 () Bool (or .def_545 .def_663))
(define-fun .def_516 () Bool (or .def_68 .def_515))
(define-fun .def_517 () Bool (and .def_157 .def_516))
(define-fun .def_518 () Bool (and .def_91 .def_517))
(define-fun .def_519 () Bool (and .def_93 .def_518))
(define-fun .def_520 () Bool (and .def_95 .def_519))
(define-fun .def_521 () Bool (and .def_112 .def_520))
(define-fun .def_522 () Bool (and .def_118 .def_521))
(define-fun .def_523 () Bool (and .def_120 .def_522))
(define-fun .def_524 () Bool (and .def_124 .def_523))
(define-fun .def_525 () Bool (and .def_140 .def_524))
(define-fun .def_526 () Bool (and .def_76 .def_525))
(define-fun .def_527 () Bool (and .def_145 .def_526))
(define-fun .def_528 () Bool (and .def_147 .def_527))
(define-fun .def_529 () Bool (and .def_149 .def_528))
(define-fun .def_530 () Bool (and .def_262 .def_529))
(define-fun .def_531 () Bool (and .def_151 .def_530))
(define-fun .def_532 () Bool (and .def_153 .def_531))
(define-fun .def_665 () Bool (or .def_532 .def_664))
(define-fun .def_666 () Bool (and |.loc{12}| .def_665))
(define-fun .def_483 () Bool (and |.loc{11}| .def_85))
(define-fun .def_484 () Bool (and .def_89 .def_483))
(define-fun .def_485 () Bool (and .def_91 .def_484))
(define-fun .def_486 () Bool (and .def_93 .def_485))
(define-fun .def_487 () Bool (and .def_95 .def_486))
(define-fun .def_488 () Bool (and .def_112 .def_487))
(define-fun .def_502 () Bool (and .def_68 .def_488))
(define-fun .def_503 () Bool (and .def_118 .def_502))
(define-fun .def_504 () Bool (and .def_120 .def_503))
(define-fun .def_505 () Bool (and .def_122 .def_504))
(define-fun .def_506 () Bool (and .def_124 .def_505))
(define-fun .def_138 () Bool (not |.loc{12}|))
(define-fun .def_507 () Bool (and .def_138 .def_506))
(define-fun .def_508 () Bool (and .def_140 .def_507))
(define-fun .def_509 () Bool (and .def_72 .def_508))
(define-fun .def_510 () Bool (and .def_74 .def_509))
(define-fun .def_511 () Bool (and .def_145 .def_510))
(define-fun .def_512 () Bool (and .def_147 .def_511))
(define-fun .def_513 () Bool (and .def_149 .def_512))
(define-fun .def_514 () Bool (and .def_151 .def_513))
(define-fun .def_667 () Bool (or .def_514 .def_666))
(define-fun .def_489 () Bool (and .def_118 .def_488))
(define-fun .def_490 () Bool (and .def_120 .def_489))
(define-fun .def_32 () Int (! |.x{2105}| :next |.x{2167}|))
(define-fun .def_98 () Bool (<= 100000 .def_32))
(define-fun .def_312 () Bool (or .def_68 .def_98))
(define-fun .def_491 () Bool (and .def_312 .def_490))
(define-fun .def_492 () Bool (and .def_122 .def_491))
(define-fun .def_493 () Bool (and .def_124 .def_492))
(define-fun .def_494 () Bool (and .def_138 .def_493))
(define-fun .def_495 () Bool (and .def_140 .def_494))
(define-fun .def_496 () Bool (and .def_72 .def_495))
(define-fun .def_497 () Bool (and .def_74 .def_496))
(define-fun .def_498 () Bool (and .def_145 .def_497))
(define-fun .def_499 () Bool (and .def_147 .def_498))
(define-fun .def_500 () Bool (and .def_149 .def_499))
(define-fun .def_501 () Bool (and .def_151 .def_500))
(define-fun .def_668 () Bool (or .def_501 .def_667))
(define-fun .def_142 () Bool (= .def_32 |.x{2167}|))
(define-fun .def_669 () Bool (and .def_142 .def_668))
(define-fun .def_402 () Bool (and |.loc{10}| .def_84))
(define-fun .def_403 () Bool (and |.loc{11}| .def_402))
(define-fun .def_404 () Bool (and .def_86 .def_403))
(define-fun .def_405 () Bool (and .def_202 .def_404))
(define-fun .def_406 () Bool (and .def_89 .def_405))
(define-fun .def_407 () Bool (and .def_91 .def_406))
(define-fun .def_408 () Bool (and .def_93 .def_407))
(define-fun .def_409 () Bool (and .def_95 .def_408))
(define-fun .def_277 () Int (* (- 1) |.x{2167}|))
(define-fun .def_278 () Int (+ .def_32 .def_277))
(define-fun .def_279 () Bool (= .def_278 (- 1)))
(define-fun .def_280 () Bool (or .def_68 .def_279))
(define-fun .def_470 () Bool (and .def_280 .def_409))
(define-fun .def_471 () Bool (and .def_112 .def_470))
(define-fun .def_472 () Bool (and .def_118 .def_471))
(define-fun .def_473 () Bool (and .def_120 .def_472))
(define-fun .def_474 () Bool (and .def_122 .def_473))
(define-fun .def_475 () Bool (and .def_124 .def_474))
(define-fun .def_476 () Bool (and .def_138 .def_475))
(define-fun .def_477 () Bool (and .def_140 .def_476))
(define-fun .def_478 () Bool (and .def_70 .def_477))
(define-fun .def_479 () Bool (and .def_145 .def_478))
(define-fun .def_480 () Bool (and .def_149 .def_479))
(define-fun .def_481 () Bool (and .def_262 .def_480))
(define-fun .def_482 () Bool (and .def_151 .def_481))
(define-fun .def_670 () Bool (or .def_482 .def_669))
(define-fun .def_447 () Bool (not .def_446))
(define-fun .def_448 () Bool (or .def_68 .def_447))
(define-fun .def_445 () Bool (and .def_84 .def_86))
(define-fun .def_449 () Bool (and .def_445 .def_448))
(define-fun .def_450 () Bool (and .def_202 .def_449))
(define-fun .def_451 () Bool (and .def_89 .def_450))
(define-fun .def_452 () Bool (and .def_205 .def_451))
(define-fun .def_453 () Bool (and .def_91 .def_452))
(define-fun .def_454 () Bool (and .def_93 .def_453))
(define-fun .def_455 () Bool (and .def_95 .def_454))
(define-fun .def_456 () Bool (and .def_112 .def_455))
(define-fun .def_457 () Bool (and .def_118 .def_456))
(define-fun .def_458 () Bool (and .def_120 .def_457))
(define-fun .def_459 () Bool (and .def_124 .def_458))
(define-fun .def_460 () Bool (and .def_138 .def_459))
(define-fun .def_461 () Bool (and .def_140 .def_460))
(define-fun .def_462 () Bool (and .def_70 .def_461))
(define-fun .def_463 () Bool (and .def_142 .def_462))
(define-fun .def_464 () Bool (and .def_76 .def_463))
(define-fun .def_465 () Bool (and .def_145 .def_464))
(define-fun .def_466 () Bool (and .def_149 .def_465))
(define-fun .def_467 () Bool (and .def_262 .def_466))
(define-fun .def_468 () Bool (and .def_151 .def_467))
(define-fun .def_469 () Bool (and .def_153 .def_468))
(define-fun .def_671 () Bool (or .def_469 .def_670))
(define-fun .def_423 () Bool (and .def_84 .def_202))
(define-fun .def_424 () Bool (and .def_89 .def_423))
(define-fun .def_425 () Bool (and .def_205 .def_424))
(define-fun .def_426 () Bool (and .def_91 .def_425))
(define-fun .def_427 () Bool (and .def_93 .def_426))
(define-fun .def_428 () Bool (and .def_95 .def_427))
(define-fun .def_429 () Bool (and .def_112 .def_428))
(define-fun .def_430 () Bool (and .def_68 .def_429))
(define-fun .def_431 () Bool (and .def_118 .def_430))
(define-fun .def_432 () Bool (and .def_120 .def_431))
(define-fun .def_433 () Bool (and .def_124 .def_432))
(define-fun .def_434 () Bool (and .def_138 .def_433))
(define-fun .def_435 () Bool (and .def_140 .def_434))
(define-fun .def_436 () Bool (and .def_142 .def_435))
(define-fun .def_437 () Bool (and .def_72 .def_436))
(define-fun .def_438 () Bool (and .def_76 .def_437))
(define-fun .def_439 () Bool (and .def_145 .def_438))
(define-fun .def_440 () Bool (and .def_147 .def_439))
(define-fun .def_441 () Bool (and .def_149 .def_440))
(define-fun .def_442 () Bool (and .def_262 .def_441))
(define-fun .def_443 () Bool (and .def_151 .def_442))
(define-fun .def_444 () Bool (and .def_153 .def_443))
(define-fun .def_672 () Bool (or .def_444 .def_671))
(define-fun .def_239 () Bool (= |.x{2167}| 0))
(define-fun .def_401 () Bool (or .def_68 .def_239))
(define-fun .def_410 () Bool (and .def_401 .def_409))
(define-fun .def_411 () Bool (and .def_112 .def_410))
(define-fun .def_412 () Bool (and .def_118 .def_411))
(define-fun .def_413 () Bool (and .def_120 .def_412))
(define-fun .def_414 () Bool (and .def_122 .def_413))
(define-fun .def_415 () Bool (and .def_124 .def_414))
(define-fun .def_416 () Bool (and .def_138 .def_415))
(define-fun .def_417 () Bool (and .def_140 .def_416))
(define-fun .def_418 () Bool (and .def_70 .def_417))
(define-fun .def_419 () Bool (and .def_74 .def_418))
(define-fun .def_420 () Bool (and .def_145 .def_419))
(define-fun .def_421 () Bool (and .def_149 .def_420))
(define-fun .def_422 () Bool (and .def_151 .def_421))
(define-fun .def_673 () Bool (or .def_422 .def_672))
(define-fun .def_54 () Int (! |.x{2116}| :next |.x{2178}|))
(define-fun .def_114 () Bool (= .def_54 |.x{2178}|))
(define-fun .def_50 () (Array Int Int) (! |.x{2114}| :next |.x{2176}|))
(define-fun .def_110 () Bool (= .def_50 |.x{2176}|))
(define-fun .def_399 () Bool (and .def_110 .def_114))
(define-fun .def_66 () Int (! |.x{2122}| :next |.x{2184}|))
(define-fun .def_130 () Bool (= .def_66 |.x{2184}|))
(define-fun .def_400 () Bool (and .def_130 .def_399))
(define-fun .def_674 () Bool (and .def_400 .def_673))
(define-fun .def_38 () Int (! |.x{2108}| :next |.x{2170}|))
(define-fun .def_155 () Bool (= .def_38 |.x{2170}|))
(define-fun .def_675 () Bool (and .def_155 .def_674))
(define-fun .def_372 () Int (* (- 1) |.x{2170}|))
(define-fun .def_373 () Int (+ .def_38 .def_372))
(define-fun .def_374 () Bool (= .def_373 (- 1)))
(define-fun .def_168 () Int (* 4 |.x{2167}|))
(define-fun .def_171 () Int (+ .def_168 |.x{2175}|))
(define-fun .def_367 () (Array Int Int) (select |.x{2158}| |.x{2166}|))
(define-fun .def_368 () Int (select .def_367 .def_171))
(define-fun .def_369 () (Array Int Int) (store .def_50 .def_38 .def_368))
(define-fun .def_370 () Bool (= |.x{2176}| .def_369))
(define-fun .def_80 () Bool (<= 0 |.x{1233}|))
(define-fun .def_81 () Bool (not .def_80))
(define-fun .def_371 () Bool (and .def_81 .def_370))
(define-fun .def_375 () Bool (and .def_371 .def_374))
(define-fun .def_376 () Bool (or |.x{2123}| .def_375))
(define-fun .def_299 () Bool (and |.loc{9}| .def_84))
(define-fun .def_377 () Bool (and .def_299 .def_376))
(define-fun .def_378 () Bool (and .def_89 .def_377))
(define-fun .def_379 () Bool (and .def_205 .def_378))
(define-fun .def_380 () Bool (and .def_91 .def_379))
(define-fun .def_381 () Bool (and .def_93 .def_380))
(define-fun .def_382 () Bool (and .def_95 .def_381))
(define-fun .def_101 () Int (* 4 .def_32))
(define-fun .def_104 () Int (+ .def_101 .def_48))
(define-fun .def_103 () (Array Int Int) (select .def_14 .def_30))
(define-fun .def_105 () Int (select .def_103 .def_104))
(define-fun .def_106 () Bool (= |.x{1233}| .def_105))
(define-fun .def_99 () Bool (not .def_98))
(define-fun .def_107 () Bool (and .def_99 .def_106))
(define-fun .def_108 () Bool (or .def_68 .def_107))
(define-fun .def_383 () Bool (and .def_108 .def_382))
(define-fun .def_384 () Bool (and .def_112 .def_383))
(define-fun .def_385 () Bool (and .def_118 .def_384))
(define-fun .def_386 () Bool (and .def_120 .def_385))
(define-fun .def_387 () Bool (and .def_122 .def_386))
(define-fun .def_388 () Bool (and .def_124 .def_387))
(define-fun .def_389 () Bool (and .def_138 .def_388))
(define-fun .def_390 () Bool (and .def_140 .def_389))
(define-fun .def_391 () Bool (and .def_142 .def_390))
(define-fun .def_392 () Bool (and .def_72 .def_391))
(define-fun .def_393 () Bool (and .def_74 .def_392))
(define-fun .def_394 () Bool (and .def_145 .def_393))
(define-fun .def_395 () Bool (and .def_147 .def_394))
(define-fun .def_396 () Bool (and .def_149 .def_395))
(define-fun .def_397 () Bool (and .def_151 .def_396))
(define-fun .def_398 () Bool (and .def_153 .def_397))
(define-fun .def_676 () Bool (or .def_398 .def_675))
(define-fun .def_345 () Bool (or |.x{2123}| .def_80))
(define-fun .def_341 () Bool (and .def_89 .def_299))
(define-fun .def_342 () Bool (and .def_205 .def_341))
(define-fun .def_343 () Bool (and .def_91 .def_342))
(define-fun .def_344 () Bool (and .def_93 .def_343))
(define-fun .def_346 () Bool (and .def_344 .def_345))
(define-fun .def_347 () Bool (and .def_95 .def_346))
(define-fun .def_348 () Bool (and .def_108 .def_347))
(define-fun .def_349 () Bool (and .def_110 .def_348))
(define-fun .def_350 () Bool (and .def_112 .def_349))
(define-fun .def_351 () Bool (and .def_118 .def_350))
(define-fun .def_352 () Bool (and .def_120 .def_351))
(define-fun .def_353 () Bool (and .def_122 .def_352))
(define-fun .def_354 () Bool (and .def_124 .def_353))
(define-fun .def_355 () Bool (and .def_130 .def_354))
(define-fun .def_356 () Bool (and .def_138 .def_355))
(define-fun .def_357 () Bool (and .def_140 .def_356))
(define-fun .def_358 () Bool (and .def_142 .def_357))
(define-fun .def_359 () Bool (and .def_72 .def_358))
(define-fun .def_360 () Bool (and .def_74 .def_359))
(define-fun .def_361 () Bool (and .def_145 .def_360))
(define-fun .def_362 () Bool (and .def_147 .def_361))
(define-fun .def_363 () Bool (and .def_149 .def_362))
(define-fun .def_364 () Bool (and .def_151 .def_363))
(define-fun .def_365 () Bool (and .def_153 .def_364))
(define-fun .def_366 () Bool (and .def_155 .def_365))
(define-fun .def_677 () Bool (or .def_366 .def_676))
(define-fun .def_300 () Bool (and |.loc{11}| .def_299))
(define-fun .def_301 () Bool (and .def_86 .def_300))
(define-fun .def_302 () Bool (and .def_89 .def_301))
(define-fun .def_303 () Bool (and .def_205 .def_302))
(define-fun .def_304 () Bool (and .def_91 .def_303))
(define-fun .def_305 () Bool (and .def_93 .def_304))
(define-fun .def_306 () Bool (and .def_95 .def_305))
(define-fun .def_307 () Bool (and .def_110 .def_306))
(define-fun .def_308 () Bool (and .def_112 .def_307))
(define-fun .def_309 () Bool (and .def_114 .def_308))
(define-fun .def_326 () Bool (and .def_68 .def_309))
(define-fun .def_327 () Bool (and .def_118 .def_326))
(define-fun .def_328 () Bool (and .def_120 .def_327))
(define-fun .def_329 () Bool (and .def_122 .def_328))
(define-fun .def_330 () Bool (and .def_124 .def_329))
(define-fun .def_331 () Bool (and .def_130 .def_330))
(define-fun .def_332 () Bool (and .def_138 .def_331))
(define-fun .def_333 () Bool (and .def_140 .def_332))
(define-fun .def_334 () Bool (and .def_142 .def_333))
(define-fun .def_335 () Bool (and .def_74 .def_334))
(define-fun .def_336 () Bool (and .def_145 .def_335))
(define-fun .def_337 () Bool (and .def_147 .def_336))
(define-fun .def_338 () Bool (and .def_149 .def_337))
(define-fun .def_339 () Bool (and .def_151 .def_338))
(define-fun .def_340 () Bool (and .def_155 .def_339))
(define-fun .def_678 () Bool (or .def_340 .def_677))
(define-fun .def_310 () Bool (and .def_118 .def_309))
(define-fun .def_311 () Bool (and .def_120 .def_310))
(define-fun .def_313 () Bool (and .def_311 .def_312))
(define-fun .def_314 () Bool (and .def_122 .def_313))
(define-fun .def_315 () Bool (and .def_124 .def_314))
(define-fun .def_316 () Bool (and .def_130 .def_315))
(define-fun .def_317 () Bool (and .def_138 .def_316))
(define-fun .def_318 () Bool (and .def_140 .def_317))
(define-fun .def_319 () Bool (and .def_142 .def_318))
(define-fun .def_320 () Bool (and .def_74 .def_319))
(define-fun .def_321 () Bool (and .def_145 .def_320))
(define-fun .def_322 () Bool (and .def_147 .def_321))
(define-fun .def_323 () Bool (and .def_149 .def_322))
(define-fun .def_324 () Bool (and .def_151 .def_323))
(define-fun .def_325 () Bool (and .def_155 .def_324))
(define-fun .def_679 () Bool (or .def_325 .def_678))
(define-fun .def_270 () Bool (and |.loc{11}| .def_84))
(define-fun .def_271 () Bool (and .def_202 .def_270))
(define-fun .def_272 () Bool (and .def_89 .def_271))
(define-fun .def_273 () Bool (and .def_205 .def_272))
(define-fun .def_274 () Bool (and .def_91 .def_273))
(define-fun .def_275 () Bool (and .def_93 .def_274))
(define-fun .def_276 () Bool (and .def_95 .def_275))
(define-fun .def_281 () Bool (and .def_276 .def_280))
(define-fun .def_282 () Bool (and .def_110 .def_281))
(define-fun .def_283 () Bool (and .def_112 .def_282))
(define-fun .def_284 () Bool (and .def_114 .def_283))
(define-fun .def_285 () Bool (and .def_118 .def_284))
(define-fun .def_286 () Bool (and .def_120 .def_285))
(define-fun .def_287 () Bool (and .def_122 .def_286))
(define-fun .def_288 () Bool (and .def_124 .def_287))
(define-fun .def_289 () Bool (and .def_130 .def_288))
(define-fun .def_290 () Bool (and .def_138 .def_289))
(define-fun .def_291 () Bool (and .def_140 .def_290))
(define-fun .def_292 () Bool (and .def_70 .def_291))
(define-fun .def_293 () Bool (and .def_72 .def_292))
(define-fun .def_294 () Bool (and .def_145 .def_293))
(define-fun .def_295 () Bool (and .def_149 .def_294))
(define-fun .def_296 () Bool (and .def_151 .def_295))
(define-fun .def_297 () Bool (and .def_262 .def_296))
(define-fun .def_298 () Bool (and .def_155 .def_297))
(define-fun .def_680 () Bool (or .def_298 .def_679))
(define-fun .def_58 () Int (! |.x{2118}| :next |.x{2180}|))
(define-fun .def_264 () Bool (= .def_58 |.x{2180}|))
(define-fun .def_56 () Int (! |.x{2117}| :next |.x{2179}|))
(define-fun .def_116 () Bool (= .def_56 |.x{2179}|))
(define-fun .def_265 () Bool (and .def_116 .def_264))
(define-fun .def_128 () Bool (= .def_64 |.x{2183}|))
(define-fun .def_266 () Bool (and .def_128 .def_265))
(define-fun .def_132 () Bool (= .def_18 |.x{2160}|))
(define-fun .def_267 () Bool (and .def_132 .def_266))
(define-fun .def_134 () Bool (= .def_22 |.x{2162}|))
(define-fun .def_268 () Bool (and .def_134 .def_267))
(define-fun .def_136 () Bool (= .def_26 |.x{2164}|))
(define-fun .def_269 () Bool (and .def_136 .def_268))
(define-fun .def_681 () Bool (and .def_269 .def_680))
(define-fun .def_252 () Bool (= |.x{2164}| 0))
(define-fun .def_251 () Bool (= |.x{2160}| 0))
(define-fun .def_253 () Bool (and .def_251 .def_252))
(define-fun .def_249 () (Array Int Int) (store .def_10 0 0))
(define-fun .def_250 () Bool (= |.x{123}| .def_249))
(define-fun .def_254 () Bool (and .def_250 .def_253))
(define-fun .def_255 () Bool (or .def_68 .def_254))
(define-fun .def_241 () Bool (<= |.x{2155}| |.x{2173}|))
(define-fun .def_242 () Bool (not .def_241))
(define-fun .def_234 () (Array Int Int) (store .def_22 |.x{2166}| 400000))
(define-fun .def_235 () (Array Int Int) (store .def_234 |.x{2173}| 400000))
(define-fun .def_236 () Bool (= |.x{2162}| .def_235))
(define-fun .def_224 () Bool (<= |.x{2155}| |.x{2166}|))
(define-fun .def_225 () Bool (not .def_224))
(define-fun .def_222 () Bool (= |.x{2173}| 0))
(define-fun .def_223 () Bool (not .def_222))
(define-fun .def_226 () Bool (and .def_223 .def_225))
(define-fun .def_221 () Bool (= |.x{2170}| 0))
(define-fun .def_227 () Bool (and .def_221 .def_226))
(define-fun .def_215 () (Array Int Int) (store |.x{123}| |.x{2166}| 1))
(define-fun .def_219 () Int (select .def_215 |.x{2173}|))
(define-fun .def_220 () Bool (= .def_219 0))
(define-fun .def_228 () Bool (and .def_220 .def_227))
(define-fun .def_218 () Bool (= |.x{2175}| 0))
(define-fun .def_229 () Bool (and .def_218 .def_228))
(define-fun .def_216 () (Array Int Int) (store .def_215 |.x{2173}| 1))
(define-fun .def_217 () Bool (= |.x{2156}| .def_216))
(define-fun .def_230 () Bool (and .def_217 .def_229))
(define-fun .def_213 () Bool (= |.x{2169}| 0))
(define-fun .def_231 () Bool (and .def_213 .def_230))
(define-fun .def_211 () Bool (= |.x{2166}| 0))
(define-fun .def_212 () Bool (not .def_211))
(define-fun .def_232 () Bool (and .def_212 .def_231))
(define-fun .def_237 () Bool (and .def_232 .def_236))
(define-fun .def_209 () Int (select |.x{123}| |.x{2166}|))
(define-fun .def_210 () Bool (= .def_209 0))
(define-fun .def_238 () Bool (and .def_210 .def_237))
(define-fun .def_240 () Bool (and .def_238 .def_239))
(define-fun .def_243 () Bool (and .def_240 .def_242))
(define-fun .def_207 () Bool (= |.x{2183}| 0))
(define-fun .def_244 () Bool (and .def_207 .def_243))
(define-fun .def_245 () Bool (or |.x{2123}| .def_244))
(define-fun .def_203 () Bool (and |.loc{11}| .def_202))
(define-fun .def_204 () Bool (and .def_89 .def_203))
(define-fun .def_206 () Bool (and .def_204 .def_205))
(define-fun .def_246 () Bool (and .def_206 .def_245))
(define-fun .def_247 () Bool (and .def_120 .def_246))
(define-fun .def_248 () Bool (and .def_122 .def_247))
(define-fun .def_256 () Bool (and .def_248 .def_255))
(define-fun .def_257 () Bool (and .def_138 .def_256))
(define-fun .def_258 () Bool (and .def_72 .def_257))
(define-fun .def_259 () Bool (and .def_145 .def_258))
(define-fun .def_260 () Bool (and .def_147 .def_259))
(define-fun .def_261 () Bool (and .def_149 .def_260))
(define-fun .def_263 () Bool (and .def_261 .def_262))
(define-fun .def_682 () Bool (or .def_263 .def_681))
(define-fun .def_126 () Bool (= .def_14 |.x{2158}|))
(define-fun .def_683 () Bool (and .def_126 .def_682))
(define-fun .def_170 () (Array Int Int) (select .def_14 |.x{2166}|))
(define-fun .def_172 () Int (select .def_170 .def_171))
(define-fun .def_173 () Int (* 4 .def_64))
(define-fun .def_174 () Int (+ |.x{2169}| .def_173))
(define-fun .def_175 () (Array Int Int) (select .def_14 |.x{2173}|))
(define-fun .def_176 () (Array Int Int) (store .def_175 .def_174 .def_172))
(define-fun .def_177 () (Array Int (Array Int Int)) (store .def_14 |.x{2173}| .def_176))
(define-fun .def_178 () Bool (= |.x{2158}| .def_177))
(define-fun .def_164 () Int (* (- 1) |.x{2183}|))
(define-fun .def_165 () Int (+ .def_64 .def_164))
(define-fun .def_166 () Bool (= .def_165 (- 1)))
(define-fun .def_167 () Bool (and .def_80 .def_166))
(define-fun .def_179 () Bool (and .def_167 .def_178))
(define-fun .def_180 () Bool (or |.x{2123}| .def_179))
(define-fun .def_161 () Bool (and .def_108 .def_160))
(define-fun .def_162 () Bool (and .def_110 .def_161))
(define-fun .def_181 () Bool (and .def_162 .def_180))
(define-fun .def_182 () Bool (and .def_112 .def_181))
(define-fun .def_183 () Bool (and .def_114 .def_182))
(define-fun .def_184 () Bool (and .def_118 .def_183))
(define-fun .def_185 () Bool (and .def_120 .def_184))
(define-fun .def_186 () Bool (and .def_122 .def_185))
(define-fun .def_187 () Bool (and .def_124 .def_186))
(define-fun .def_188 () Bool (and .def_130 .def_187))
(define-fun .def_189 () Bool (and .def_132 .def_188))
(define-fun .def_190 () Bool (and .def_134 .def_189))
(define-fun .def_191 () Bool (and .def_136 .def_190))
(define-fun .def_192 () Bool (and .def_138 .def_191))
(define-fun .def_193 () Bool (and .def_140 .def_192))
(define-fun .def_194 () Bool (and .def_142 .def_193))
(define-fun .def_195 () Bool (and .def_74 .def_194))
(define-fun .def_196 () Bool (and .def_145 .def_195))
(define-fun .def_197 () Bool (and .def_147 .def_196))
(define-fun .def_198 () Bool (and .def_149 .def_197))
(define-fun .def_199 () Bool (and .def_151 .def_198))
(define-fun .def_200 () Bool (and .def_153 .def_199))
(define-fun .def_201 () Bool (and .def_155 .def_200))
(define-fun .def_684 () Bool (or .def_201 .def_683))
(define-fun .def_82 () Bool (or |.x{2123}| .def_81))
(define-fun .def_88 () Bool (and .def_82 .def_87))
(define-fun .def_90 () Bool (and .def_88 .def_89))
(define-fun .def_92 () Bool (and .def_90 .def_91))
(define-fun .def_94 () Bool (and .def_92 .def_93))
(define-fun .def_96 () Bool (and .def_94 .def_95))
(define-fun .def_109 () Bool (and .def_96 .def_108))
(define-fun .def_111 () Bool (and .def_109 .def_110))
(define-fun .def_113 () Bool (and .def_111 .def_112))
(define-fun .def_115 () Bool (and .def_113 .def_114))
(define-fun .def_117 () Bool (and .def_115 .def_116))
(define-fun .def_119 () Bool (and .def_117 .def_118))
(define-fun .def_121 () Bool (and .def_119 .def_120))
(define-fun .def_123 () Bool (and .def_121 .def_122))
(define-fun .def_125 () Bool (and .def_123 .def_124))
(define-fun .def_127 () Bool (and .def_125 .def_126))
(define-fun .def_129 () Bool (and .def_127 .def_128))
(define-fun .def_131 () Bool (and .def_129 .def_130))
(define-fun .def_133 () Bool (and .def_131 .def_132))
(define-fun .def_135 () Bool (and .def_133 .def_134))
(define-fun .def_137 () Bool (and .def_135 .def_136))
(define-fun .def_139 () Bool (and .def_137 .def_138))
(define-fun .def_141 () Bool (and .def_139 .def_140))
(define-fun .def_143 () Bool (and .def_141 .def_142))
(define-fun .def_144 () Bool (and .def_74 .def_143))
(define-fun .def_146 () Bool (and .def_144 .def_145))
(define-fun .def_148 () Bool (and .def_146 .def_147))
(define-fun .def_150 () Bool (and .def_148 .def_149))
(define-fun .def_152 () Bool (and .def_150 .def_151))
(define-fun .def_154 () Bool (and .def_152 .def_153))
(define-fun .def_156 () Bool (and .def_154 .def_155))
(define-fun .def_685 () Bool (or .def_156 .def_684))
(define-fun .def_697 () Bool (! (and .def_685 .def_696) :trans true))
(define-fun .def_713 () Bool (and .def_86 .def_147))
(define-fun .def_714 () Bool (and .def_74 .def_713))
(define-fun .def_715 () Bool (and .def_76 .def_714))
(define-fun .def_716 () Bool (and .def_68 .def_715))
(define-fun .def_717 () Bool (! (not .def_716) :invar-property 0))
(assert true)
